63
1 0 9
2 1 7
3 1 2
4 3 5
5 0 7
5 1 9
6 1 7
6 3 8
6 4 6
7 2 6
7 3 5
7 4 9
7 6 8
8 0 9
8 1 4
8 3 2
8 4 4
8 5 5
8 6 6
9 0 9
9 1 4
9 5 9
9 7 5
9 8 6
10 3 1
10 4 6
10 5 7
10 7 8
11 0 7
11 1 3
11 2 1
11 5 4
11 7 5
11 8 3
11 9 2
11 10 9
12 0 2
12 2 5
12 5 9
12 6 5
12 7 1
12 8 2
12 11 4
13 2 1
13 4 8
13 6 2
13 9 3
13 12 8
14 3 3
14 4 8
14 5 1
14 7 3
14 8 3
14 9 2
14 12 7
14 13 8
15 0 7
15 2 3
15 3 7
15 7 1
15 8 8
15 9 3
15 10 2
15 13 5
15 14 4
16 0 5
16 2 4
16 3 8
16 7 2
16 8 1
16 9 4
16 10 7
16 11 4
16 12 2
16 14 6
17 0 6
17 1 7
17 6 8
17 8 2
17 9 2
17 10 8
17 12 5
18 0 9
18 5 7
18 6 3
18 8 7
18 9 5
18 15 8
18 16 8
19 0 2
19 3 9
19 6 5
19 8 6
19 9 5
19 10 3
19 13 2
19 14 9
19 15 1
19 16 1
20 1 4
20 2 9
20 5 1
20 7 8
20 8 1
20 10 3
20 11 2
20 12 8
20 14 5
20 15 9
20 19 5
21 7 3
21 9 7
21 10 4
21 11 4
21 13 5
21 19 1
22 2 6
22 3 7
22 4 5
22 5 5
22 7 4
22 9 1
22 10 9
22 12 5
22 16 2
22 19 3
22 21 6
23 1 8
23 3 7
23 5 9
23 6 3
23 9 3
23 10 7
23 11 3
23 12 2
23 13 9
23 14 5
23 16 9
23 17 9
23 18 9
23 19 2
23 20 6
23 22 1
24 0 1
24 1 8
24 4 2
24 9 8
24 10 2
24 15 8
24 16 2
24 17 8
24 18 3
24 19 9
24 20 6
25 5 4
25 6 5
25 7 3
25 10 7
25 12 5
25 14 3
25 16 4
25 18 8
25 19 7
25 21 4
25 23 3
25 24 1
26 0 8
26 8 9
26 15 7
26 17 1
26 19 9
26 23 6
27 0 4
27 4 1
27 5 5
27 10 1
27 11 9
27 12 7
27 14 7
27 19 9
27 20 7
27 23 1
28 3 4
28 4 7
28 5 8
28 7 4
28 9 8
28 11 8
28 13 6
28 21 7
28 22 1
28 25 9
29 2 2
29 3 8
29 4 4
29 6 1
29 7 4
29 8 9
29 9 9
29 10 6
29 12 5
29 15 1
29 16 4
29 17 9
29 24 7
30 3 4
30 6 3
30 7 8
30 9 1
30 11 7
30 12 2
30 13 6
30 16 5
30 17 9
30 18 8
30 19 5
30 21 5
30 23 4
30 25 5
30 28 1
30 29 7
31 0 4
31 1 5
31 2 2
31 9 2
31 11 5
31 13 4
31 15 1
31 17 3
31 19 8
31 22 7
31 23 3
31 25 9
31 29 1
32 0 8
32 2 1
32 4 9
32 5 6
32 6 5
32 8 5
32 9 3
32 10 6
32 12 2
32 14 8
32 17 9
32 19 6
32 23 4
32 24 9
32 25 6
32 26 9
32 27 9
32 29 1
33 0 7
33 1 6
33 7 8
33 8 4
33 9 5
33 12 8
33 13 4
33 14 4
33 16 1
33 17 1
33 21 3
33 23 3
33 24 2
33 26 2
33 27 5
33 28 7
33 29 1
33 31 9
33 32 3
34 0 9
34 3 5
34 4 2
34 6 4
34 8 1
34 9 7
34 10 4
34 13 9
34 14 2
34 16 8
34 17 6
34 18 4
34 20 1
34 21 5
34 23 6
34 25 7
34 26 5
34 28 4
34 29 1
35 0 2
35 3 1
35 4 6
35 5 6
35 7 9
35 9 6
35 10 7
35 12 4
35 13 2
35 14 8
35 15 6
35 16 1
35 19 1
35 24 6
35 25 3
35 27 7
35 29 1
35 32 8
35 33 2
36 2 6
36 3 6
36 4 5
36 7 8
36 8 4
36 10 3
36 11 8
36 13 8
36 15 4
36 16 7
36 17 6
36 18 2
36 20 9
36 22 9
36 26 8
36 27 7
36 29 1
36 30 8
36 32 4
36 34 3
37 1 7
37 5 3
37 6 9
37 8 4
37 9 5
37 10 2
37 12 6
37 13 9
37 16 6
37 18 9
37 19 9
37 20 2
37 21 7
37 22 5
37 23 4
37 25 2
37 26 5
37 27 9
37 29 3
37 32 8
37 35 5
37 36 2
38 0 7
38 2 7
38 3 1
38 4 9
38 5 9
38 6 1
38 11 9
38 12 7
38 14 4
38 15 4
38 17 1
38 18 9
38 22 7
38 24 4
38 25 6
38 28 9
38 31 4
38 32 2
38 33 2
39 0 2
39 1 7
39 2 9
39 7 3
39 9 7
39 11 6
39 13 5
39 14 3
39 15 7
39 21 4
39 22 7
39 23 8
39 25 6
39 26 1
39 29 6
39 31 2
39 32 1
39 33 2
39 34 3
39 35 5
39 38 5
40 0 8
40 1 8
40 3 7
40 4 2
40 9 5
40 10 6
40 14 8
40 19 8
40 23 5
40 26 9
40 27 2
40 30 3
40 32 9
40 33 4
40 34 4
40 35 6
40 37 2
40 38 8
41 0 8
41 6 7
41 7 3
41 8 7
41 9 3
41 10 4
41 11 4
41 14 3
41 16 7
41 17 4
41 18 6
41 19 1
41 20 4
41 21 4
41 22 6
41 23 4
41 24 4
41 29 8
41 36 7
41 37 5
41 38 8
41 40 6
42 0 3
42 2 9
42 5 9
42 8 6
42 11 6
42 13 6
42 16 2
42 17 7
42 18 4
42 19 4
42 22 8
42 23 2
42 25 4
42 33 8
42 34 7
42 35 7
42 37 7
42 39 9
42 40 9
43 0 2
43 5 4
43 8 6
43 9 2
43 10 9
43 11 3
43 14 1
43 17 9
43 21 4
43 24 4
43 25 8
43 28 2
43 29 8
43 31 9
43 32 9
43 33 9
43 36 3
43 39 5
43 41 2
44 0 9
44 1 8
44 2 4
44 4 8
44 5 7
44 6 8
44 7 1
44 11 9
44 12 1
44 13 9
44 14 3
44 16 5
44 17 8
44 21 8
44 23 8
44 24 8
44 25 6
44 26 2
44 28 8
44 29 1
44 31 3
44 32 6
44 33 3
44 34 2
44 36 4
44 37 1
44 38 2
44 41 1
44 43 8
45 2 7
45 4 9
45 8 6
45 9 2
45 11 2
45 13 1
45 15 4
45 17 8
45 18 6
45 21 5
45 26 6
45 27 9
45 29 9
45 30 3
45 31 3
45 33 4
45 36 5
45 39 5
46 1 8
46 2 1
46 3 8
46 7 4
46 11 6
46 12 9
46 13 5
46 14 5
46 17 6
46 18 9
46 19 9
46 20 9
46 25 8
46 27 1
46 28 8
46 29 1
46 30 8
46 31 8
46 32 4
46 33 9
46 36 8
46 37 1
46 41 8
46 42 4
46 43 8
46 44 4
47 0 6
47 1 7
47 2 6
47 3 4
47 7 1
47 9 1
47 10 9
47 12 3
47 14 2
47 16 8
47 18 9
47 22 4
47 24 7
47 25 2
47 27 3
47 28 8
47 33 7
47 34 8
47 35 3
47 36 1
47 37 6
47 39 8
47 40 8
47 43 1
47 46 6
48 0 4
48 1 5
48 2 5
48 3 9
48 4 8
48 5 5
48 6 7
48 13 3
48 15 2
48 16 3
48 18 5
48 23 8
48 25 7
48 28 3
48 29 9
48 30 2
48 31 7
48 32 5
48 35 9
48 39 2
48 40 9
48 43 5
48 45 1
48 46 6
49 0 6
49 1 6
49 2 2
49 4 7
49 5 9
49 8 7
49 9 8
49 10 8
49 11 1
49 16 6
49 17 3
49 18 7
49 21 7
49 22 4
49 23 8
49 27 5
49 33 5
49 34 2
49 36 1
49 41 2
49 45 4
49 47 5
50 0 8
50 1 9
50 2 7
50 3 4
50 4 8
50 5 1
50 10 1
50 11 2
50 12 7
50 18 7
50 19 6
50 20 3
50 23 9
50 25 2
50 28 5
50 29 3
50 34 7
50 35 8
50 36 7
50 38 9
50 39 2
50 41 7
50 42 5
50 43 7
50 44 4
50 46 7
50 47 3
50 48 8
50 49 2
51 0 8
51 4 6
51 6 3
51 8 2
51 10 3
51 13 3
51 16 2
51 18 1
51 21 9
51 23 2
51 25 5
51 33 3
51 36 9
51 38 6
51 39 9
51 44 9
51 45 5
51 50 7
52 2 7
52 4 7
52 6 5
52 7 7
52 8 6
52 9 3
52 10 4
52 12 2
52 13 7
52 14 5
52 19 1
52 20 1
52 22 7
52 23 7
52 29 6
52 30 5
52 32 1
52 33 3
52 35 9
52 36 1
52 37 7
52 42 4
52 44 3
52 47 8
52 48 5
52 51 2
53 0 7
53 1 8
53 2 5
53 3 5
53 4 3
53 5 1
53 6 3
53 10 6
53 12 2
53 14 7
53 17 1
53 18 8
53 19 9
53 20 3
53 22 5
53 23 3
53 27 8
53 28 4
53 29 9
53 30 9
53 31 3
53 32 1
53 36 3
53 37 4
53 38 8
53 42 7
53 44 5
53 48 3
53 50 5
53 52 8
54 0 3
54 3 5
54 4 4
54 5 5
54 8 7
54 9 3
54 14 4
54 15 5
54 16 5
54 17 7
54 19 4
54 22 6
54 24 2
54 25 1
54 26 2
54 27 1
54 29 5
54 34 4
54 36 4
54 37 2
54 39 7
54 40 6
54 45 5
54 51 7
55 2 8
55 4 7
55 5 2
55 6 3
55 10 2
55 12 6
55 13 3
55 14 4
55 16 5
55 17 4
55 18 6
55 21 1
55 23 5
55 24 9
55 28 8
55 30 5
55 31 9
55 34 7
55 35 8
55 40 9
55 43 7
55 45 8
55 46 3
55 49 7
55 53 8
55 54 1
56 0 2
56 2 9
56 3 9
56 5 7
56 6 6
56 7 3
56 8 1
56 9 9
56 13 2
56 20 8
56 22 2
56 23 2
56 24 5
56 26 7
56 27 4
56 33 6
56 35 2
56 36 6
56 38 9
56 39 1
56 40 1
56 45 5
56 46 7
56 47 1
56 48 1
56 49 8
56 50 9
56 51 2
56 52 9
56 53 9
56 54 3
56 55 4
57 1 7
57 2 1
57 4 4
57 7 9
57 16 2
57 17 3
57 18 2
57 19 2
57 20 5
57 21 3
57 22 3
57 23 7
57 24 2
57 29 8
57 31 5
57 32 8
57 33 4
57 36 3
57 39 7
57 43 3
57 44 8
57 46 6
57 47 4
57 48 9
57 52 6
57 54 2
57 55 7
57 56 5
58 1 6
58 2 5
58 5 3
58 6 9
58 7 7
58 9 4
58 11 8
58 12 4
58 14 3
58 15 6
58 16 1
58 17 7
58 18 5
58 25 1
58 26 7
58 28 6
58 29 8
58 33 6
58 35 8
58 36 5
58 37 1
58 40 9
58 42 7
58 47 9
58 49 7
58 51 8
58 52 8
58 54 8
58 55 4
59 2 8
59 3 2
59 5 7
59 9 9
59 10 8
59 12 9
59 14 2
59 15 3
59 16 2
59 18 5
59 19 6
59 20 5
59 22 7
59 23 1
59 24 8
59 27 9
59 30 7
59 31 3
59 32 2
59 34 4
59 35 7
59 37 9
59 38 6
59 40 2
59 41 6
59 45 5
59 46 8
59 47 3
59 50 6
59 51 9
59 54 8
59 56 6
59 57 6
60 0 5
60 1 5
60 6 2
60 7 5
60 9 9
60 10 7
60 11 1
60 12 4
60 14 1
60 15 4
60 17 8
60 19 3
60 23 3
60 25 1
60 26 1
60 27 6
60 29 5
60 32 2
60 33 2
60 34 5
60 37 5
60 41 8
60 43 2
60 48 9
60 49 4
60 51 5
60 54 7
60 55 3
60 57 9
60 58 2
60 59 3
61 1 5
61 2 8
61 3 8
61 6 9
61 7 4
61 8 8
61 12 8
61 13 2
61 15 9
61 16 3
61 17 4
61 20 1
61 21 7
61 24 6
61 25 6
61 26 2
61 28 8
61 30 6
61 33 9
61 34 1
61 35 2
61 37 8
61 38 4
61 41 5
61 44 4
61 45 9
61 47 6
61 50 4
61 51 7
61 58 7
62 0 2
62 4 6
62 6 5
62 8 7
62 9 1
62 10 5
62 16 2
62 18 4
62 19 1
62 20 1
62 24 1
62 27 2
62 29 2
62 31 4
62 32 7
62 33 5
62 34 4
62 35 8
62 43 4
62 44 5
62 45 3
62 47 5
62 48 2
62 50 6
62 52 1
62 56 7
62 58 9
62 59 2
62 61 8
